(set-info :status unknown)
(declare-const symbol_216 (_ BitVec 32))
(declare-const symbol_203 (_ BitVec 32))
(declare-const symbol_90 (_ BitVec 32))
(declare-const symbol_71 (_ BitVec 32))
(declare-const symbol_32 (_ BitVec 32))
(declare-const symbol_162 (_ BitVec 32))
(declare-const symbol_150 (_ BitVec 32))
(declare-const symbol_222 (_ BitVec 32))
(declare-const symbol_160 (_ BitVec 32))
(declare-const symbol_197 (_ BitVec 32))
(declare-const symbol_175 (_ BitVec 32))
(declare-const symbol_144 (_ BitVec 32))
(declare-const symbol_125 (_ BitVec 32))
(declare-const symbol_156 (_ BitVec 32))
(declare-const symbol_109 (_ BitVec 32))
(declare-const symbol_17 (_ BitVec 32))
(declare-const symbol_193 (_ BitVec 32))
(declare-const symbol_152 (_ BitVec 32))
(declare-const symbol_115 (_ BitVec 32))
(declare-const symbol_224 (_ BitVec 32))
(declare-const symbol_54 (_ BitVec 32))
(declare-const symbol_164 (_ BitVec 32))
(declare-const symbol_113 (_ BitVec 32))
(declare-const symbol_49 (_ BitVec 32))
(declare-const symbol_131 (_ BitVec 32))
(declare-const symbol_137 (_ BitVec 32))
(declare-const symbol_63 (_ BitVec 32))
(declare-const symbol_141 (_ BitVec 32))
(declare-const symbol_102 (_ BitVec 32))
(declare-const symbol_220 (_ BitVec 32))
(declare-const symbol_172 (_ BitVec 32))
(declare-const symbol_205 (_ BitVec 32))
(declare-const symbol_84 (_ BitVec 32))
(declare-const symbol_135 (_ BitVec 32))
(declare-const symbol_26 (_ BitVec 32))
(declare-const symbol_28 (_ BitVec 32))
(declare-const symbol_158 (_ BitVec 32))
(declare-const symbol_15 (_ BitVec 32))
(declare-const symbol_0 (_ BitVec 32))
(declare-const symbol_139 (_ BitVec 32))
(declare-const symbol_104 (_ BitVec 32))
(declare-const symbol_184 (_ BitVec 32))
(declare-const symbol_9 (_ BitVec 32))
(declare-const symbol_166 (_ BitVec 32))
(declare-const symbol_92 (_ BitVec 32))
(declare-const symbol_44 (_ BitVec 32))
(declare-const symbol_188 (_ BitVec 32))
(declare-const symbol_179 (_ BitVec 32))
(declare-const symbol_96 (_ BitVec 32))
(declare-const symbol_36 (_ BitVec 32))
(declare-const symbol_181 (_ BitVec 32))
(declare-const symbol_64 (_ BitVec 32))
(declare-const symbol_183 (_ BitVec 32))
(declare-const symbol_133 (_ BitVec 32))
(declare-const symbol_61 (_ BitVec 32))
(declare-const symbol_34 (_ BitVec 32))
(declare-const symbol_11 (_ BitVec 32))
(declare-const symbol_123 (_ BitVec 32))
(declare-const symbol_145 (_ BitVec 32))
(declare-const symbol_117 (_ BitVec 32))
(declare-const symbol_46 (_ BitVec 32))
(declare-const symbol_38 (_ BitVec 32))
(declare-const symbol_24 (_ BitVec 32))
(declare-const symbol_100 (_ BitVec 32))
(declare-const symbol_57 (_ BitVec 32))
(declare-const symbol_127 (_ BitVec 32))
(declare-const symbol_74 (_ BitVec 32))
(declare-const symbol_207 (_ BitVec 32))
(declare-const symbol_94 (_ BitVec 32))
(declare-const symbol_72 (_ BitVec 32))
(declare-const symbol_67 (_ BitVec 32))
(declare-const symbol_41 (_ BitVec 32))
(declare-const symbol_191 (_ BitVec 32))
(declare-const symbol_176 (_ BitVec 32))
(declare-const symbol_79 (_ BitVec 32))
(declare-const symbol_147 (_ BitVec 32))
(declare-const symbol_170 (_ BitVec 32))
(declare-const symbol_30 (_ BitVec 32))
(declare-const symbol_169 (_ BitVec 32))
(declare-const symbol_111 (_ BitVec 32))
(declare-const symbol_21 (_ BitVec 32))
(declare-const symbol_19 (_ BitVec 32))
(declare-const symbol_88 (_ BitVec 32))
(declare-const symbol_43 (_ BitVec 32))
(declare-const symbol_218 (_ BitVec 32))
(declare-const symbol_2 (_ BitVec 32))
(declare-const symbol_107 (_ BitVec 32))
(declare-const symbol_154 (_ BitVec 32))
(declare-const symbol_86 (_ BitVec 32))
(declare-const symbol_51 (_ BitVec 32))
(declare-const symbol_199 (_ BitVec 32))
(declare-const symbol_98 (_ BitVec 32))
(declare-const symbol_186 (_ BitVec 32))
(declare-const symbol_121 (_ BitVec 32))
(declare-const symbol_13 (_ BitVec 32))
(declare-const symbol_7 (_ BitVec 32))
(declare-const symbol_212 (_ BitVec 32))
(declare-const symbol_53 (_ BitVec 32))
(declare-const symbol_59 (_ BitVec 32))
(declare-const symbol_56 (_ BitVec 32))
(declare-const symbol_210 (_ BitVec 32))
(declare-const symbol_148 (_ BitVec 32))
(declare-const symbol_69 (_ BitVec 32))
(declare-const symbol_195 (_ BitVec 32))
(declare-const symbol_129 (_ BitVec 32))
(declare-const symbol_119 (_ BitVec 32))
(declare-const symbol_81 (_ BitVec 32))
(declare-const symbol_76 (_ BitVec 32))
(declare-const symbol_5 (_ BitVec 32))
(declare-const symbol_214 (_ BitVec 32))
(declare-const symbol_201 (_ BitVec 32))
(declare-const symbol_48 (_ BitVec 32))
(assert (not (bvsge symbol_224 (_ bv0 32))))
(assert (not (bvsge symbol_222 (_ bv0 32))))
(assert (not (bvsge symbol_220 (_ bv0 32))))
(assert (not (bvsge symbol_218 (_ bv0 32))))
(assert (not (bvsge symbol_216 (_ bv0 32))))
(assert (not (bvsge symbol_214 (_ bv0 32))))
(assert (not (bvsge symbol_212 (_ bv0 32))))
(assert (not (bvsge symbol_210 (_ bv0 32))))
(assert (not (bvsge symbol_207 (_ bv0 32))))
(assert (not (bvsge symbol_205 (_ bv0 32))))
(assert (not (bvsge symbol_203 (_ bv0 32))))
(assert (not (bvsge symbol_201 (_ bv0 32))))
(assert (not (bvsge symbol_199 (_ bv0 32))))
(assert (not (bvsge symbol_197 (_ bv0 32))))
(assert (not (bvsge symbol_195 (_ bv0 32))))
(assert (not (bvsge symbol_193 (_ bv0 32))))
(assert (not (bvsge symbol_191 (_ bv0 32))))
(assert (not (bvsge symbol_188 (_ bv0 32))))
(assert (not (bvsge symbol_186 (_ bv0 32))))
(assert (not (bvsge symbol_184 (_ bv0 32))))
(assert (not (bvsge symbol_183 (_ bv0 32))))
(assert (not (bvsge symbol_181 (_ bv0 32))))
(assert (not (bvsge symbol_179 (_ bv0 32))))
(assert (not (bvsge symbol_176 (_ bv0 32))))
(assert (not (bvsge symbol_175 (_ bv0 32))))
(assert (not (bvsge symbol_172 (_ bv0 32))))
(assert (not (bvsge symbol_170 (_ bv0 32))))
(assert (not (bvsge symbol_169 (_ bv0 32))))
(assert (not (bvsge symbol_166 (_ bv0 32))))
(assert (not (bvsge symbol_164 (_ bv0 32))))
(assert (not (bvsge symbol_162 (_ bv0 32))))
(assert (not (bvsge symbol_160 (_ bv0 32))))
(assert (not (bvsge symbol_158 (_ bv0 32))))
(assert (not (bvsge symbol_156 (_ bv0 32))))
(assert (not (bvsge symbol_154 (_ bv0 32))))
(assert (not (bvsge symbol_152 (_ bv0 32))))
(assert (not (bvsge symbol_150 (_ bv0 32))))
(assert (not (bvsge symbol_148 (_ bv0 32))))
(assert (not (bvsge symbol_147 (_ bv0 32))))
(assert (not (bvsge symbol_145 (_ bv0 32))))
(assert (not (bvsge symbol_144 (_ bv0 32))))
(assert (not (bvsge symbol_141 (_ bv0 32))))
(assert (not (bvsge symbol_139 (_ bv0 32))))
(assert (not (bvsge symbol_137 (_ bv0 32))))
(assert (not (bvsge symbol_135 (_ bv0 32))))
(assert (not (bvsge symbol_133 (_ bv0 32))))
(assert (not (bvsge symbol_131 (_ bv0 32))))
(assert (not (bvsge symbol_129 (_ bv0 32))))
(assert (not (bvsge symbol_127 (_ bv0 32))))
(assert (not (bvsge symbol_125 (_ bv0 32))))
(assert (not (bvsge symbol_123 (_ bv0 32))))
(assert (not (bvsge symbol_121 (_ bv0 32))))
(assert (not (bvsge symbol_119 (_ bv0 32))))
(assert (not (bvsge symbol_117 (_ bv0 32))))
(assert (not (bvsge symbol_115 (_ bv0 32))))
(assert (not (bvsge symbol_113 (_ bv0 32))))
(assert (not (bvsge symbol_111 (_ bv0 32))))
(assert (not (bvsge symbol_109 (_ bv0 32))))
(assert (not (bvsge symbol_107 (_ bv0 32))))
(assert (not (bvsge symbol_104 (_ bv0 32))))
(assert (not (bvsge symbol_102 (_ bv0 32))))
(assert (not (bvsge symbol_100 (_ bv0 32))))
(assert (not (bvsge symbol_98 (_ bv0 32))))
(assert (not (bvsge symbol_96 (_ bv0 32))))
(assert (not (bvsge symbol_94 (_ bv0 32))))
(assert (not (bvsge symbol_92 (_ bv0 32))))
(assert (not (bvsge symbol_90 (_ bv0 32))))
(assert (not (bvsge symbol_88 (_ bv0 32))))
(assert (not (bvsge symbol_86 (_ bv0 32))))
(assert (not (bvsge symbol_84 (_ bv0 32))))
(assert (not (bvsge symbol_81 (_ bv0 32))))
(assert (not (bvsge symbol_79 (_ bv0 32))))
(assert (not (bvsge symbol_76 (_ bv0 32))))
(assert (not (bvsge symbol_74 (_ bv0 32))))
(assert (not (bvsge symbol_72 (_ bv0 32))))
(assert (not (bvsge symbol_71 (_ bv0 32))))
(assert (not (bvsge symbol_69 (_ bv0 32))))
(assert (not (bvsge symbol_67 (_ bv0 32))))
(assert (not (bvsge symbol_64 (_ bv0 32))))
(assert (not (bvsge symbol_63 (_ bv0 32))))
(assert (not (bvsge symbol_61 (_ bv0 32))))
(assert (not (bvsge symbol_59 (_ bv0 32))))
(assert (not (bvsge symbol_57 (_ bv0 32))))
(assert (not (bvsge symbol_56 (_ bv0 32))))
(assert (not (bvsge symbol_54 (_ bv0 32))))
(assert (not (bvsge symbol_53 (_ bv0 32))))
(assert (not (bvsge symbol_51 (_ bv0 32))))
(assert (not (bvsge symbol_49 (_ bv0 32))))
(assert (not (bvsge symbol_48 (_ bv0 32))))
(assert (not (bvsge symbol_46 (_ bv0 32))))
(assert (not (bvsge symbol_44 (_ bv0 32))))
(assert (not (bvsge symbol_43 (_ bv0 32))))
(assert (not (bvsge symbol_41 (_ bv0 32))))
(assert (not (bvsge symbol_38 (_ bv0 32))))
(assert (not (bvsge symbol_36 (_ bv0 32))))
(assert (not (bvsge symbol_34 (_ bv0 32))))
(assert (not (bvsge symbol_32 (_ bv0 32))))
(assert (not (bvsge symbol_30 (_ bv0 32))))
(assert (not (bvsge symbol_28 (_ bv0 32))))
(assert (not (bvsge symbol_26 (_ bv0 32))))
(assert (not (bvsge symbol_24 (_ bv0 32))))
(assert (not (bvsge symbol_21 (_ bv0 32))))
(assert (not (bvsge symbol_19 (_ bv0 32))))
(assert (not (bvsge symbol_17 (_ bv0 32))))
(assert (not (bvsge symbol_15 (_ bv0 32))))
(assert (not (bvsge symbol_13 (_ bv0 32))))
(assert (not (bvsge symbol_11 (_ bv0 32))))
(assert (not (bvsge symbol_9 (_ bv0 32))))
(assert (not (bvsge symbol_7 (_ bv0 32))))
(assert (not (bvsge symbol_5 (_ bv0 32))))
(assert (not (bvsge symbol_2 (_ bv0 32))))
(assert (bvsge symbol_0 (_ bv0 32)))
(check-sat)